2-dimensional/CL_03_25_05.vbp
2
1000 1000 
25
234 641 30
275 376 72
287 448 4
602 391 88
555 537 54
279 221 64
706 775 90
571 733 26
606 629 94
545 595 28
321 365 72
668 472 49
718 449 54
406 631 19
465 349 28
627 339 61
226 332 84
597 262 23
271 263 67
382 668 53
464 210 54
249 223 16
272 439 9
666 793 54
563 217 77
