datasets/2-dimensional/CL_03_25_05.txt
1000 1000 
0 30 234 641 
1 72 275 376 
2 4 287 448 
3 88 602 391 
4 54 555 537 
5 64 279 221 
6 90 706 775 
7 26 571 733 
8 94 606 629 
9 28 545 595 
10 72 321 365 
11 49 668 472 
12 54 718 449 
13 19 406 631 
14 28 465 349 
15 61 627 339 
16 84 226 332 
17 23 597 262 
18 67 271 263 
19 53 382 668 
20 54 464 210 
21 16 249 223 
22 9 272 439 
23 54 666 793 
24 77 563 217 
